p cnf 12 47 
c Factors encoded in variables 1-6 and 7-12
c Target number: 3127
c Factors: 59 x 53
2 8 0
-3 -10 -9 0
-4 3 9 0
11 0
3 -2 9 -8 0
-4 10 -9 -8 0
4 3 2 -10 9 8 0
-4 -10 -9 0
-4 2 10 9 8 0
-4 10 9 8 0
4 3 10 -9 8 0
5 0
-4 3 -10 8 0
7 0
-3 2 10 -9 0
4 10 0
3 10 9 0
-4 3 2 9 0
4 -10 9 8 0
-4 -10 0
2 10 0
-4 -3 -10 -8 0
-3 -2 -9 0
4 -2 9 -8 0
12 0
-4 -3 -2 10 0
-2 -10 0
-9 -8 0
4 -10 -9 -8 0
-4 3 -10 9 0
-4 3 2 10 0
4 -3 -2 10 -9 -8 0
1 0
4 -3 -2 -10 0
-4 -3 -10 9 0
-4 -3 8 0
4 3 2 -10 0
4 10 9 0
4 -3 2 10 9 0
4 2 -10 9 8 0
-3 -9 0
6 0
3 10 9 8 0
4 2 9 8 0
3 9 0
-2 -8 0
-4 -3 -10 -9 0
